
  32    4
   1   1   1   1

   0   0   0   0   0  16 2 3 4 5 6 7 8 9 10 13 14 15 16 17 30 31 
   1   0   1   0   1   5   23   22   21   19   12
   7   1   0   0   0   5   26   25   24   20   11
   3   1   0   0   1   5   23   22   20   19   18
   1   1   0   1   1   5   26   21   20   19   18
   1   0   1   1   1   4   29   21   20   18
   7   1   1   0   1   3   20   19   18
   5   1   0   0   0   3   25   23   21
   10   0   0   1   0   2   19   18
   2   1   0   0   0   2   19   18
   6   0   0   1   1   1   18
   5   0   1   1   0   1   18
   7   1   0   1   0   1   19
   10   1   1   0   1   1   28
   10   1   0   1   1   1   27
   9   0   0   1   1   1   24
   1   0   0   1   0   1   22
   5   0   1   0   0   1   32
   8   0   1   1   0   1   32
   10   0   0   1   0   1   32
   6   1   1   1   1   1   32
   3   1   1   0   1   1   32
   6   1   0   0   1   1   32
   10   1   0   0   0   1   32
   8   0   1   1   0   1   32
   6   1   1   0   0   1   32
   7   1   0   0   0   1   32
   9   0   1   1   1   1   32
   5   1   0   0   1   1   32
   2   0   1   0   0   1   32
   10   1   1   1   0   1   32
   0   0   0   0   0   0 
